min: c;

c = 3.71935708553235 * u4_t1_h1 + 3.18991603363559 * u4_t1_h2 + 2.99296347832497 * u4_t1_h3 + 2.95565730167925 * u4_t1_h4 + 2.95565730167925 * u4_t10_h4 + 3.51946813546008 * u4_t1_h5 + 3.51946813546008 * u4_t10_h5 + 4.29600534378369 * u4_t1_h6 + 4.29600534378369 * u4_t10_h6 + 3.84589551011439 * u4_t1_h7 + 3.84589551011439 * u4_t10_h7 + 5.26896693652411 * u4_t1_h8 + 5.26896693652411 * u4_t9_h8 + 5.26896693652411 * u4_t10_h8 + 4.87525599771488 * u4_t9_h9 + 4.87525599771488 * u4_t10_h9 + 5.84618246632249 * u4_t9_h10 + 5.84618246632249 * u4_t10_h10 + 3.92918354736951 * u4_t2_h11 + 3.92918354736951 * u4_t4_h11 + 3.92918354736951 * u4_t9_h11 + 3.92918354736951 * u4_t10_h11 + 5.87146373131672 * u4_t2_h12 + 5.87146373131672 * u4_t3_h12 + 5.87146373131672 * u4_t4_h12 + 5.87146373131672 * u4_t8_h12 + 5.87146373131672 * u4_t9_h12 + 5.87146373131672 * u4_t10_h12 + 4.83724348205868 * u4_t2_h13 + 4.83724348205868 * u4_t3_h13 + 4.83724348205868 * u4_t4_h13 + 4.83724348205868 * u4_t8_h13 + 4.83724348205868 * u4_t9_h13 + 5.38319461327561 * u4_t2_h14 + 5.38319461327561 * u4_t3_h14 + 5.38319461327561 * u4_t4_h14 + 5.38319461327561 * u4_t8_h14 + 5.38319461327561 * u4_t9_h14 + 6.25391786164725 * u4_t2_h15 + 6.25391786164725 * u4_t3_h15 + 6.25391786164725 * u4_t4_h15 + 6.25391786164725 * u4_t8_h15 + 6.25391786164725 * u4_t9_h15 + 6.37186844887613 * u4_t2_h16 + 6.37186844887613 * u4_t3_h16 + 6.37186844887613 * u4_t4_h16 + 6.37186844887613 * u4_t5_h16 + 6.37186844887613 * u4_t8_h16 + 6.37186844887613 * u4_t9_h16 + 6.01607008960438 * u4_t2_h17 + 6.01607008960438 * u4_t3_h17 + 6.01607008960438 * u4_t5_h17 + 6.01607008960438 * u4_t8_h17 + 6.01607008960438 * u4_t9_h17 + 6.36509480585812 * u4_t2_h18 + 6.36509480585812 * u4_t3_h18 + 6.36509480585812 * u4_t5_h18 + 6.36509480585812 * u4_t8_h18 + 6.36509480585812 * u4_t9_h18 + 5.82405800019901 * u4_t2_h19 + 5.82405800019901 * u4_t3_h19 + 5.82405800019901 * u4_t6_h19 + 5.82405800019901 * u4_t8_h19 + 5.82405800019901 * u4_t9_h19 + 5.15432063370679 * u4_t2_h20 + 5.15432063370679 * u4_t6_h20 + 5.15432063370679 * u4_t9_h20 + 5.36391512842289 * u4_t6_h21 + 5.17379006733505 * u4_t6_h22 + 5.17379006733505 * u4_t7_h22 + 4.99757560878583 * u4_t6_h23 + 4.99757560878583 * u4_t7_h23;
0 <= u4_t1_h1 <= 1;
0 <= u4_t1_h2 <= 1;
0 <= u4_t1_h3 <= 1;
0 <= u4_t1_h4 <= 1;
0 <= u4_t1_h5 <= 1;
0 <= u4_t1_h6 <= 1;
0 <= u4_t1_h7 <= 1;
0 <= u4_t1_h8 <= 1;
u4_t1_h1 + u4_t1_h2 + u4_t1_h3 + u4_t1_h4 + u4_t1_h5 + u4_t1_h6 + u4_t1_h7 + u4_t1_h8 = 1;
0 <= u4_t2_h11 <= 1;
0 <= u4_t2_h12 <= 1;
0 <= u4_t2_h13 <= 1;
0 <= u4_t2_h14 <= 1;
0 <= u4_t2_h15 <= 1;
0 <= u4_t2_h16 <= 1;
0 <= u4_t2_h17 <= 1;
0 <= u4_t2_h18 <= 1;
0 <= u4_t2_h19 <= 1;
0 <= u4_t2_h20 <= 1;
u4_t2_h11 + u4_t2_h12 + u4_t2_h13 + u4_t2_h14 + u4_t2_h15 + u4_t2_h16 + u4_t2_h17 + u4_t2_h18 + u4_t2_h19 + u4_t2_h20 = 2;
0 <= u4_t3_h12 <= 1;
0 <= u4_t3_h13 <= 1;
0 <= u4_t3_h14 <= 1;
0 <= u4_t3_h15 <= 1;
0 <= u4_t3_h16 <= 1;
0 <= u4_t3_h17 <= 1;
0 <= u4_t3_h18 <= 1;
0 <= u4_t3_h19 <= 1;
u4_t3_h12 + u4_t3_h13 + u4_t3_h14 + u4_t3_h15 + u4_t3_h16 + u4_t3_h17 + u4_t3_h18 + u4_t3_h19 = 3;
0 <= u4_t4_h11 <= 1;
0 <= u4_t4_h12 <= 1;
0 <= u4_t4_h13 <= 1;
0 <= u4_t4_h14 <= 1;
0 <= u4_t4_h15 <= 1;
0 <= u4_t4_h16 <= 1;
u4_t4_h11 + u4_t4_h12 + u4_t4_h13 + u4_t4_h14 + u4_t4_h15 + u4_t4_h16 = 3;
0 <= u4_t5_h16 <= 1;
0 <= u4_t5_h17 <= 1;
0 <= u4_t5_h18 <= 1;
u4_t5_h16 + u4_t5_h17 + u4_t5_h18 = 1;
0 <= u4_t6_h19 <= 1;
0 <= u4_t6_h20 <= 1;
0 <= u4_t6_h21 <= 1;
0 <= u4_t6_h22 <= 1;
0 <= u4_t6_h23 <= 1;
u4_t6_h19 + u4_t6_h20 + u4_t6_h21 + u4_t6_h22 + u4_t6_h23 = 3;
0 <= u4_t7_h22 <= 1;
0 <= u4_t7_h23 <= 1;
u4_t7_h22 + u4_t7_h23 = 1;
0 <= u4_t8_h12 <= 1;
0 <= u4_t8_h13 <= 1;
0 <= u4_t8_h14 <= 1;
0 <= u4_t8_h15 <= 1;
0 <= u4_t8_h16 <= 1;
0 <= u4_t8_h17 <= 1;
0 <= u4_t8_h18 <= 1;
0 <= u4_t8_h19 <= 1;
u4_t8_h12 + u4_t8_h13 + u4_t8_h14 + u4_t8_h15 + u4_t8_h16 + u4_t8_h17 + u4_t8_h18 + u4_t8_h19 = 2;
0 <= u4_t9_h8 <= 1;
0 <= u4_t9_h9 <= 1;
0 <= u4_t9_h10 <= 1;
0 <= u4_t9_h11 <= 1;
0 <= u4_t9_h12 <= 1;
0 <= u4_t9_h13 <= 1;
0 <= u4_t9_h14 <= 1;
0 <= u4_t9_h15 <= 1;
0 <= u4_t9_h16 <= 1;
0 <= u4_t9_h17 <= 1;
0 <= u4_t9_h18 <= 1;
0 <= u4_t9_h19 <= 1;
0 <= u4_t9_h20 <= 1;
u4_t9_h8 + u4_t9_h9 + u4_t9_h10 + u4_t9_h11 + u4_t9_h12 + u4_t9_h13 + u4_t9_h14 + u4_t9_h15 + u4_t9_h16 + u4_t9_h17 + u4_t9_h18 + u4_t9_h19 + u4_t9_h20 = 2;
0 <= u4_t10_h4 <= 1;
0 <= u4_t10_h5 <= 1;
0 <= u4_t10_h6 <= 1;
0 <= u4_t10_h7 <= 1;
0 <= u4_t10_h8 <= 1;
0 <= u4_t10_h9 <= 1;
0 <= u4_t10_h10 <= 1;
0 <= u4_t10_h11 <= 1;
0 <= u4_t10_h12 <= 1;
u4_t10_h4 + u4_t10_h5 + u4_t10_h6 + u4_t10_h7 + u4_t10_h8 + u4_t10_h9 + u4_t10_h10 + u4_t10_h11 + u4_t10_h12 = 2;
